benchmarks/sr2008/minisat/simon-s02b-r4b1k1.1.cnf.gz.minisat.out
WARNING: for repeatability, setting FPU to use double precision
============================[ Problem Statistics ]=============================
|                                                                             |
|  Number of variables:          2424                                         |
|  Number of clauses:           14812                                         |
|  Parse time:                   0.00 s                                       |
|                                                                             |
============================[ Search Statistics ]==============================
| Conflicts |          ORIGINAL         |          LEARNT          | Progress |
|           |    Vars  Clauses Literals |    Limit  Clauses Lit/Cl |          |
===============================================================================
|       100 |    2424    14812    39764 |     5431      100     27 |  0.000 % |
|       250 |    2424    14812    39764 |     5974      250     25 |  0.000 % |
|       475 |    2424    14812    39764 |     6571      475     25 |  0.001 % |
|       812 |    2424    14812    39764 |     7228      812     25 |  0.001 % |
|      1318 |    2424    14812    39764 |     7951     1318     25 |  0.001 % |
|      2077 |    2424    14812    39764 |     8746     2077     25 |  0.001 % |
|      3216 |    2424    14812    39764 |     9621     3216     26 |  0.001 % |
|      4924 |    2424    14812    39764 |    10583     4924     25 |  0.001 % |
|      7486 |    2424    14812    39764 |    11641     7486     25 |  0.000 % |
|     11330 |    2424    14812    39764 |    12806    11330     26 |  0.000 % |
|     17096 |    2424    14812    39764 |    14086    10676     24 |  0.001 % |
|     25745 |    2424    14812    39764 |    15495    12259     24 |  0.000 % |
|     38719 |    2424    14812    39764 |    17045     9421     20 |  0.001 % |
|     58180 |    2424    14812    39764 |    18749    11568     21 |  0.001 % |
|     87372 |    2424    14812    39764 |    20624    12134     19 |  0.001 % |
|    131161 |    2424    14812    39764 |    22686    14132     20 |  0.001 % |
|    196845 |    2424    14812    39764 |    24955    22272     20 |  0.000 % |
===============================================================================
restarts              : 671
conflicts             : 283845         (19140 /sec)
decisions             : 330903         (0.00 % random) (22313 /sec)
propagations          : 87744337       (5916678 /sec)
conflict literals     : 6608431        (64.06 % deleted)
Memory used           : 22.00 MB
CPU time              : 14.83 s

SATISFIABLE
